2
1000 4
92
523 1 1
530 1 1
535 1 1
537 1 2
542 1 1
544 1 1
37 1 1
40 1 1
41 1 1
45 1 1
51 1 1
55 1 1
56 1 1
58 1 1
572 1 1
574 1 1
67 1 1
68 1 1
69 1 1
582 1 2
81 1 1
83 1 1
85 1 1
86 1 1
87 1 1
601 1 1
604 1 1
609 1 1
105 1 1
108 1 2
622 1 1
625 1 1
114 1 1
115 1 1
122 1 1
129 1 1
135 1 1
620 1 1
138 1 2
139 1 1
145 1 1
149 1 1
170 1 1
176 1 1
178 1 1
205 1 1
211 1 1
212 1 1
215 1 2
219 1 1
225 1 1
226 1 1
227 1 2
230 1 1
231 1 1
236 1 1
263 1 1
267 1 1
270 1 1
272 1 1
289 1 1
291 1 1
297 1 1
307 1 1
314 1 1
321 1 1
324 1 1
327 1 1
341 1 1
570 1 1
360 1 1
364 1 1
367 1 1
378 1 1
394 1 1
397 1 1
401 1 1
406 1 2
412 1 1
414 1 1
425 1 1
426 1 1
429 1 1
439 1 1
444 1 1
447 1 2
456 1 1
480 1 1
483 1 1
485 1 1
507 1 1
597 1 1
